p cnf 25 42
-16 21 -18 -10 0
19 -12 -21 0
-6 -19 22 0
-13 -8 -22 -4 -2 0
-13 -7 -22 -4 -2 0
-13 -8 -22 -3 -2 0
-7 -5 -19 23 0
-23 -13 -3 -2 0
-23 -13 -4 -2 0
-8 24 -5 -19 0
-24 -13 -3 -2 0
-23 -25 0
-7 -6 -21 -25 0
-8 -6 -21 -25 0
-24 -25 0
26 -13 -1 0
-6 -20 -26 0
-24 -4 -26 0
-5 -20 -26 0
-24 -3 -26 0
-8 -22 -3 -26 0
-8 -22 -4 -26 0
-7 -22 -4 -26 0
-23 -4 -26 0
-14 27 -1 0
-5 -20 -27 0
-6 -20 -27 0
-8 -22 -4 -27 0
-7 -22 -4 -27 0
-8 -3 -22 -27 0
-23 -4 -27 0
-24 -3 -27 0
-24 -4 -27 0
-14 28 -2 0
-5 -20 -28 0
-8 -22 -28 -3 0
-24 -28 -3 0
25 -4 -28 0
-7 -3 29 0
-21 20 -29 0
-22 -29 -2 -13 0
-22 -29 -28 0
